COLUMNS

passenger_count
pickup_ID
dropoff_ID
request_time_sec
pickup_district
dropoff_district
LDuals
IDuals
vehicle_ID
pick_position
drop_position

REQUESTS_INFO
4      840       628       30167     290       189       592       592       40        1         2         
1      870       626       30551     291       189       131       131       78        1         2         
2      485       393       30569     189       52        111       111       171       1         2         
1      885       814       30541     290       290       179       179       199       1         2         
1      862       724       30536     290       290       254       254       204       1         2         
1      236       709       30554     87        131       142       142       238       1         3         
1      913       827       30555     291       291       160       160       242       1         2         
1      297       629       30548     277       189       147       147       261       1         3         
1      861       970       30547     290       290       185       185       282       1         3         
3      850       739       30557     291       189       165       165       284       1         2         
1      972       970       30537     290       290       194       194       287       1         2         
1      772       840       30490     290       290       222.5     222.5     342       1         3         
2      863       980       30548     290       291       224.5     224.5     342       2         4         
3      780       1227      30560     291       192       144       144       364       1         2         
3      780       1227      30560     291       192       144       144       417       1         2         
1      499       626       30555     52        189       121       121       469       1         3         
1      873       699       30487     291       290       211       211       489       1         2         
1      834       481       30513     290       189       228       228       504       1         2         
1      908       828       30564     290       291       238.5     238.5     519       1         3         
1      889       489       30500     290       199       251       251       573       1         4         
1      916       727       30552     291       290       176       176       582       1         4         
1      959       673       30563     291       189       176       176       582       2         3         
1      766       766       30511     290       290       142.5     142.5     625       1         2         
1      916       578       30496     291       189       232       232       635       1         2         
1      644       725       30541     131       290       133       133       643       1         2         
1      621       649       30569     280       189       110       110       657       1         3         
1      903       873       30492     290       291       258.5     258.5     659       1         2         
1      817       884       30561     290       290       167       167       666       1         3         
3      504       19        30527     52        98        169       169       668       1         2         
1      749       1032      30539     290       84        175       175       678       1         2         
4      958       465       30529     291       199       200       200       696       1         2         
1      794       1068      30554     290       291       177.5     177.5     718       1         4         
1      795       1010      30546     290       290       183       183       750       1         4         
2      865       862       30437     290       290       337       337       750       2         3         
1      795       632       30514     290       189       229       229       751       1         2         
1      793       699       30544     290       290       202       202       771       1         3         
1      842       100       30546     290       57        228       228       817       1         2         
1      375       626       30528     119       189       188       188       832       1         2         
3      970       748       30464     290       290       266.5     266.5     833       1         2         
2      904       896       30450     290       291       302       302       883       1         2         
2      861       842       30560     290       290       208       208       885       1         2         
1      679       352       30554     290       119       123       123       903       1         3         
2      981       578       30536     291       189       189       189       910       1         2         
1      959       597       30555     291       131       179       179       914       1         3         
1      928       609       30468     290       189       299.5     299.5     955       1         2         
1      815       722       30549     290       290       186       186       995       1         3         
1      376       570       30541     168       52        206       206       996       1         3         
1      927       803       30542     290       291       227       227       997       1         3         
1      749       378       30562     290       168       138       138       1014      1         3         
1      840       671       30558     290       280       175       175       1060      1         4         
1      864       675       30493     290       189       278       278       1060      2         3         
2      888       605       30568     290       189       180       180       1121      1         2         
2      906       22        30543     290       98        214       214       1163      1         3         
3      970       748       30464     290       290       266.5     266.5     1167      1         2         
3      1089      1001      30552     291       291       139       139       1208      1         3         
1      949       794       30529     290       290       206.5     206.5     1218      1         2         
1      893       554       30530     291       189       136       136       1245      1         3         
1      1048      1268      30559     291       129       168       168       1320      1         3         
2      307       576       30553     127       189       130       130       1765      1         2         
1      886       548       30562     290       52        213       213       1835      1         3         
3      863       980       30548     290       291       224.5     224.5     1871      1         3         
1      815       442       30502     290       168       259       259       1947      1         2         
1      913       670       30562     291       280       158       158       1952      1         2         
1      1087      694       30542     291       189       134       134       1955      1         2         
3      780       1169      30537     291       291       167       167       1967      1         2         
3      354       624       30489     119       189       251       251       1984      1         2         
1      927       721       30540     290       290       154       154       1995      1         2         
1      749       766       30570     290       290       0         0         0         0         0         
1      556       596       30570     199       131       0         0         0         0         0         
3      817       314       30570     290       119       0         0         0         0         0         
1      722       9         30570     290       98        0         0         0         0         0         
2      653       432       30570     189       52        0         0         0         0         0         
3      653       432       30570     189       52        0         0         0         0         0         
2      662       652       30570     131       189       0         0         0         0         0         
3      662       652       30570     131       189       0         0         0         0         0         
1      556       116       30571     199       9         0         0         0         0         0         
2      1010      675       30571     290       189       0         0         0         0         0         
1      117       570       30571     286       52        0         0         0         0         0         
1      324       549       30571     299       52        0         0         0         0         0         
3      366       375       30572     299       119       0         0         0         0         0         
4      605       624       30572     189       189       0         0         0         0         0         
3      857       672       30572     290       189       0         0         0         0         0         
2      857       672       30572     290       189       0         0         0         0         0         
3      652       671       30572     189       280       0         0         0         0         0         
2      652       671       30572     189       280       0         0         0         0         0         
1      535       629       30572     189       189       0         0         0         0         0         
2      366       375       30572     299       119       0         0         0         0         0         
1      276       526       30573     87        52        0         0         0         0         0         
2      662       556       30573     131       199       0         0         0         0         0         
1      356       371       30573     119       52        0         0         0         0         0         
1      312       597       30573     87        131       0         0         0         0         0         
1      717       604       30574     189       189       0         0         0         0         0         
1      662       880       30574     131       50        0         0         0         0         0         
1      137       647       30575     286       280       0         0         0         0         0         
1      971       1069      30575     290       291       0         0         0         0         0         
1      905       857       30576     290       290       0         0         0         0         0         
1      48        582       30576     98        189       0         0         0         0         0         
1      929       479       30576     290       52        0         0         0         0         0         
1      505       593       30576     52        52        0         0         0         0         0         
1      781       121       30577     291       57        0         0         0         0         0         
1      365       500       30577     299       52        0         0         0         0         0         
1      802       922       30577     291       50        0         0         0         0         0         
1      646       351       30577     280       52        0         0         0         0         0         
1      256       535       30578     87        189       0         0         0         0         0         
1      719       766       30578     189       290       0         0         0         0         0         
1      607       249       30578     189       266       0         0         0         0         0         
1      485       465       30578     189       199       0         0         0         0         0         
1      793       171       30579     290       286       0         0         0         0         0         
1      840       758       30579     290       131       0         0         0         0         0         
1      700       836       30579     290       290       0         0         0         0         0         
2      744       861       30579     290       290       0         0         0         0         0         
1      330       772       30579     127       290       0         0         0         0         0         
1      621       409       30579     280       52        0         0         0         0         0         
1      702       21        30579     290       98        0         0         0         0         0         
2      816       727       30580     290       290       0         0         0         0         0         
1      836       721       30580     290       290       0         0         0         0         0         
1      60        141       30580     9         54        0         0         0         0         0         
2      720       193       30580     290       266       0         0         0         0         0         
1      254       62        30580     87        98        0         0         0         0         0         
1      527       553       30580     52        189       0         0         0         0         0         
1      818       421       30580     290       168       0         0         0         0         0         
1      337       627       30581     277       189       0         0         0         0         0         
1      596       545       30581     131       52        0         0         0         0         0         
1      98        32        30581     98        98        0         0         0         0         0         
1      304       308       30581     299       127       0         0         0         0         0         
1      621       443       30582     280       168       0         0         0         0         0         
1      813       652       30582     290       189       0         0         0         0         0         
2      134       267       30582     9         266       0         0         0         0         0         
1      439       771       30583     189       290       0         0         0         0         0         
1      663       521       30583     131       52        0         0         0         0         0         
1      276       505       30583     87        52        0         0         0         0         0         
1      306       603       30583     299       189       0         0         0         0         0         
1      980       1066      30583     291       291       0         0         0         0         0         
2      662       507       30583     131       189       0         0         0         0         0         
1      970       652       30584     290       189       0         0         0         0         0         
2      355       232       30584     119       266       0         0         0         0         0         
1      906       604       30584     290       189       0         0         0         0         0         
4      663       650       30585     131       189       0         0         0         0         0         
1      488       627       30585     199       189       0         0         0         0         0         
1      972       725       30585     290       290       0         0         0         0         0         
1      579       571       30585     189       52        0         0         0         0         0         
2      527       511       30585     52        199       0         0         0         0         0         
3      551       601       30585     189       189       0         0         0         0         0         
2      551       601       30585     189       189       0         0         0         0         0         
1      642       1489      30586     131       296       0         0         0         0         0         
1      442       35        30586     168       98        0         0         0         0         0         
2      397       577       30586     168       189       0         0         0         0         0         
1      509       768       30586     199       290       0         0         0         0         0         
1      439       212       30586     189       266       0         0         0         0         0         
1      749       698       30586     290       189       0         0         0         0         0         
1      726       1157      30587     290       129       0         0         0         0         0         
1      608       841       30587     189       290       0         0         0         0         0         
1      889       629       30587     290       189       0         0         0         0         0         
1      79        350       30588     98        127       0         0         0         0         0         
1      59        19        30588     999       98        0         0         0         0         0         
1      1069      1190      30589     291       192       0         0         0         0         0         
1      162       307       30590     178       127       0         0         0         0         0         
1      650       737       30590     189       189       0         0         0         0         0         
1      723       604       30590     290       189       0         0         0         0         0         
1      115       716       30591     9         189       0         0         0         0         0         
1      758       284       30591     131       299       0         0         0         0         0         
2      646       685       30591     280       999       0         0         0         0         0         
1      618       780       30591     131       291       0         0         0         0         0         
2      1066      1225      30592     291       192       0         0         0         0         0         
1      374       99        30592     119       286       0         0         0         0         0         
1      549       674       30592     52        189       0         0         0         0         0         
3      697       1031      30593     189       50        0         0         0         0         0         
2      697       1031      30593     189       50        0         0         0         0         0         
3      292       650       30593     87        189       0         0         0         0         0         
2      534       117       30593     199       286       0         0         0         0         0         
1      618       720       30593     131       290       0         0         0         0         0         
1      620       675       30593     131       189       0         0         0         0         0         
1      714       710       30594     131       131       0         0         0         0         0         
1      530       555       30595     189       199       0         0         0         0         0         
1      527       350       30595     52        127       0         0         0         0         0         
1      366       498       30596     299       52        0         0         0         0         0         
1      734       551       30596     131       189       0         0         0         0         0         
3      549       555       30597     52        199       0         0         0         0         0         
1      701       557       30597     290       189       0         0         0         0         0         
1      839       836       30597     290       290       0         0         0         0         0         
1      48        415       30597     98        100       0         0         0         0         0         
3      549       555       30597     52        199       0         0         0         0         0         
3      1355      1267      30598     129       129       0         0         0         0         0         
3      1355      1267      30598     129       129       0         0         0         0         0         
1      551       557       30598     189       189       0         0         0         0         0         
1      694       662       30598     189       131       0         0         0         0         0         
1      513       421       30598     199       168       0         0         0         0         0         
1      397       506       30598     168       189       0         0         0         0         0         
1      793       559       30599     290       189       0         0         0         0         0         
1      463       530       30599     168       189       0         0         0         0         0         
1      457       662       30599     52        131       0         0         0         0         0         
